(set-logic LRA)
 
(define-fun OutputNeuron_0_idx0 ((onnx__MatMul_0_0 Real) (onnx__MatMul_0_1 Real) (onnx__MatMul_0_2 Real) (onnx__MatMul_0_3 Real) (onnx__MatMul_0_4 Real) (onnx__MatMul_0_5 Real) (onnx__MatMul_0_6 Real) (onnx__MatMul_0_7 Real)) Real
  (let ((a!1 (ite (<= (+ (* (/ 298401.0 1000000.0) onnx__MatMul_0_0)
                       (* (- (/ 34153.0 200000.0)) onnx__MatMul_0_1)
                       (* (- (/ 54893.0 200000.0)) onnx__MatMul_0_2)
                       (* (- (/ 41953.0 500000.0)) onnx__MatMul_0_3)
                       (* (- (/ 59417.0 200000.0)) onnx__MatMul_0_4)
                       (* (- (/ 77657.0 1000000.0)) onnx__MatMul_0_5)
                       (* (- (/ 135193.0 1000000.0)) onnx__MatMul_0_6)
                       (* (/ 481.0 50000.0) onnx__MatMul_0_7))
                    (/ 151147.0 500000.0))
                0.0
                (+ (- (/ 151147.0 500000.0))
                   (* (/ 298401.0 1000000.0) onnx__MatMul_0_0)
                   (* (- (/ 34153.0 200000.0)) onnx__MatMul_0_1)
                   (* (- (/ 54893.0 200000.0)) onnx__MatMul_0_2)
                   (* (- (/ 41953.0 500000.0)) onnx__MatMul_0_3)
                   (* (- (/ 59417.0 200000.0)) onnx__MatMul_0_4)
                   (* (- (/ 77657.0 1000000.0)) onnx__MatMul_0_5)
                   (* (- (/ 135193.0 1000000.0)) onnx__MatMul_0_6)
                   (* (/ 481.0 50000.0) onnx__MatMul_0_7))))
      (a!2 (ite (<= (+ (* (/ 19227.0 15625.0) onnx__MatMul_0_0)
                       (* (/ 576013.0 1000000.0) onnx__MatMul_0_1)
                       (* (/ 155027.0 1000000.0) onnx__MatMul_0_2)
                       (* (- (/ 861319.0 1000000.0)) onnx__MatMul_0_3)
                       (* (/ 710167.0 1000000.0) onnx__MatMul_0_4)
                       (* (- (/ 94297.0 1000000.0)) onnx__MatMul_0_5)
                       (* (- (/ 57719.0 125000.0)) onnx__MatMul_0_6)
                       (* (/ 630599.0 250000.0) onnx__MatMul_0_7))
                    (- (/ 101683.0 500000.0)))
                0.0
                (+ (/ 101683.0 500000.0)
                   (* (/ 19227.0 15625.0) onnx__MatMul_0_0)
                   (* (/ 576013.0 1000000.0) onnx__MatMul_0_1)
                   (* (/ 155027.0 1000000.0) onnx__MatMul_0_2)
                   (* (- (/ 861319.0 1000000.0)) onnx__MatMul_0_3)
                   (* (/ 710167.0 1000000.0) onnx__MatMul_0_4)
                   (* (- (/ 94297.0 1000000.0)) onnx__MatMul_0_5)
                   (* (- (/ 57719.0 125000.0)) onnx__MatMul_0_6)
                   (* (/ 630599.0 250000.0) onnx__MatMul_0_7))))
      (a!3 (ite (<= (+ (* (- (/ 111831.0 500000.0)) onnx__MatMul_0_0)
                       (* (/ 3941.0 25000.0) onnx__MatMul_0_1)
                       (* (- (/ 1109.0 4000.0)) onnx__MatMul_0_2)
                       (* (- (/ 332041.0 1000000.0)) onnx__MatMul_0_3)
                       (* (- (/ 59981.0 500000.0)) onnx__MatMul_0_4)
                       (* (- (/ 443.0 100000.0)) onnx__MatMul_0_5)
                       (* (/ 10417.0 50000.0) onnx__MatMul_0_6)
                       (* (/ 53827.0 500000.0) onnx__MatMul_0_7))
                    (/ 1711.0 12500.0))
                0.0
                (+ (- (/ 1711.0 12500.0))
                   (* (- (/ 111831.0 500000.0)) onnx__MatMul_0_0)
                   (* (/ 3941.0 25000.0) onnx__MatMul_0_1)
                   (* (- (/ 1109.0 4000.0)) onnx__MatMul_0_2)
                   (* (- (/ 332041.0 1000000.0)) onnx__MatMul_0_3)
                   (* (- (/ 59981.0 500000.0)) onnx__MatMul_0_4)
                   (* (- (/ 443.0 100000.0)) onnx__MatMul_0_5)
                   (* (/ 10417.0 50000.0) onnx__MatMul_0_6)
                   (* (/ 53827.0 500000.0) onnx__MatMul_0_7))))
      (a!4 (ite (<= (+ (* (/ 54357.0 500000.0) onnx__MatMul_0_0)
                       (* (- (/ 140111.0 500000.0)) onnx__MatMul_0_1)
                       (* (/ 48441.0 1000000.0) onnx__MatMul_0_2)
                       (* (- (/ 4711.0 1000000.0)) onnx__MatMul_0_3)
                       (* (- (/ 144241.0 1000000.0)) onnx__MatMul_0_4)
                       (* (/ 195717.0 1000000.0) onnx__MatMul_0_5)
                       (* (- (/ 97849.0 1000000.0)) onnx__MatMul_0_6)
                       (* (- (/ 40117.0 1000000.0)) onnx__MatMul_0_7))
                    (/ 310783.0 1000000.0))
                0.0
                (+ (- (/ 310783.0 1000000.0))
                   (* (/ 54357.0 500000.0) onnx__MatMul_0_0)
                   (* (- (/ 140111.0 500000.0)) onnx__MatMul_0_1)
                   (* (/ 48441.0 1000000.0) onnx__MatMul_0_2)
                   (* (- (/ 4711.0 1000000.0)) onnx__MatMul_0_3)
                   (* (- (/ 144241.0 1000000.0)) onnx__MatMul_0_4)
                   (* (/ 195717.0 1000000.0) onnx__MatMul_0_5)
                   (* (- (/ 97849.0 1000000.0)) onnx__MatMul_0_6)
                   (* (- (/ 40117.0 1000000.0)) onnx__MatMul_0_7)))))
  (+ (/ 1040617.0 1000000.0)
     (* (/ 25981.0 125000.0) a!1)
     (* (- (/ 2105881.0 1000000.0)) a!2)
     (* (/ 8559.0 250000.0) a!3)
     (* (/ 128429.0 1000000.0) a!4)))
)

(define-fun OutputNeuron_0_idx1 ((onnx__MatMul_0_0 Real) (onnx__MatMul_0_1 Real) (onnx__MatMul_0_2 Real) (onnx__MatMul_0_3 Real) (onnx__MatMul_0_4 Real) (onnx__MatMul_0_5 Real) (onnx__MatMul_0_6 Real) (onnx__MatMul_0_7 Real)) Real
  (let ((a!1 (ite (<= (+ (* (/ 298401.0 1000000.0) onnx__MatMul_0_0)
                       (* (- (/ 34153.0 200000.0)) onnx__MatMul_0_1)
                       (* (- (/ 54893.0 200000.0)) onnx__MatMul_0_2)
                       (* (- (/ 41953.0 500000.0)) onnx__MatMul_0_3)
                       (* (- (/ 59417.0 200000.0)) onnx__MatMul_0_4)
                       (* (- (/ 77657.0 1000000.0)) onnx__MatMul_0_5)
                       (* (- (/ 135193.0 1000000.0)) onnx__MatMul_0_6)
                       (* (/ 481.0 50000.0) onnx__MatMul_0_7))
                    (/ 151147.0 500000.0))
                0.0
                (+ (- (/ 151147.0 500000.0))
                   (* (/ 298401.0 1000000.0) onnx__MatMul_0_0)
                   (* (- (/ 34153.0 200000.0)) onnx__MatMul_0_1)
                   (* (- (/ 54893.0 200000.0)) onnx__MatMul_0_2)
                   (* (- (/ 41953.0 500000.0)) onnx__MatMul_0_3)
                   (* (- (/ 59417.0 200000.0)) onnx__MatMul_0_4)
                   (* (- (/ 77657.0 1000000.0)) onnx__MatMul_0_5)
                   (* (- (/ 135193.0 1000000.0)) onnx__MatMul_0_6)
                   (* (/ 481.0 50000.0) onnx__MatMul_0_7))))
      (a!2 (ite (<= (+ (* (/ 19227.0 15625.0) onnx__MatMul_0_0)
                       (* (/ 576013.0 1000000.0) onnx__MatMul_0_1)
                       (* (/ 155027.0 1000000.0) onnx__MatMul_0_2)
                       (* (- (/ 861319.0 1000000.0)) onnx__MatMul_0_3)
                       (* (/ 710167.0 1000000.0) onnx__MatMul_0_4)
                       (* (- (/ 94297.0 1000000.0)) onnx__MatMul_0_5)
                       (* (- (/ 57719.0 125000.0)) onnx__MatMul_0_6)
                       (* (/ 630599.0 250000.0) onnx__MatMul_0_7))
                    (- (/ 101683.0 500000.0)))
                0.0
                (+ (/ 101683.0 500000.0)
                   (* (/ 19227.0 15625.0) onnx__MatMul_0_0)
                   (* (/ 576013.0 1000000.0) onnx__MatMul_0_1)
                   (* (/ 155027.0 1000000.0) onnx__MatMul_0_2)
                   (* (- (/ 861319.0 1000000.0)) onnx__MatMul_0_3)
                   (* (/ 710167.0 1000000.0) onnx__MatMul_0_4)
                   (* (- (/ 94297.0 1000000.0)) onnx__MatMul_0_5)
                   (* (- (/ 57719.0 125000.0)) onnx__MatMul_0_6)
                   (* (/ 630599.0 250000.0) onnx__MatMul_0_7))))
      (a!3 (ite (<= (+ (* (- (/ 111831.0 500000.0)) onnx__MatMul_0_0)
                       (* (/ 3941.0 25000.0) onnx__MatMul_0_1)
                       (* (- (/ 1109.0 4000.0)) onnx__MatMul_0_2)
                       (* (- (/ 332041.0 1000000.0)) onnx__MatMul_0_3)
                       (* (- (/ 59981.0 500000.0)) onnx__MatMul_0_4)
                       (* (- (/ 443.0 100000.0)) onnx__MatMul_0_5)
                       (* (/ 10417.0 50000.0) onnx__MatMul_0_6)
                       (* (/ 53827.0 500000.0) onnx__MatMul_0_7))
                    (/ 1711.0 12500.0))
                0.0
                (+ (- (/ 1711.0 12500.0))
                   (* (- (/ 111831.0 500000.0)) onnx__MatMul_0_0)
                   (* (/ 3941.0 25000.0) onnx__MatMul_0_1)
                   (* (- (/ 1109.0 4000.0)) onnx__MatMul_0_2)
                   (* (- (/ 332041.0 1000000.0)) onnx__MatMul_0_3)
                   (* (- (/ 59981.0 500000.0)) onnx__MatMul_0_4)
                   (* (- (/ 443.0 100000.0)) onnx__MatMul_0_5)
                   (* (/ 10417.0 50000.0) onnx__MatMul_0_6)
                   (* (/ 53827.0 500000.0) onnx__MatMul_0_7))))
      (a!4 (ite (<= (+ (* (/ 54357.0 500000.0) onnx__MatMul_0_0)
                       (* (- (/ 140111.0 500000.0)) onnx__MatMul_0_1)
                       (* (/ 48441.0 1000000.0) onnx__MatMul_0_2)
                       (* (- (/ 4711.0 1000000.0)) onnx__MatMul_0_3)
                       (* (- (/ 144241.0 1000000.0)) onnx__MatMul_0_4)
                       (* (/ 195717.0 1000000.0) onnx__MatMul_0_5)
                       (* (- (/ 97849.0 1000000.0)) onnx__MatMul_0_6)
                       (* (- (/ 40117.0 1000000.0)) onnx__MatMul_0_7))
                    (/ 310783.0 1000000.0))
                0.0
                (+ (- (/ 310783.0 1000000.0))
                   (* (/ 54357.0 500000.0) onnx__MatMul_0_0)
                   (* (- (/ 140111.0 500000.0)) onnx__MatMul_0_1)
                   (* (/ 48441.0 1000000.0) onnx__MatMul_0_2)
                   (* (- (/ 4711.0 1000000.0)) onnx__MatMul_0_3)
                   (* (- (/ 144241.0 1000000.0)) onnx__MatMul_0_4)
                   (* (/ 195717.0 1000000.0) onnx__MatMul_0_5)
                   (* (- (/ 97849.0 1000000.0)) onnx__MatMul_0_6)
                   (* (- (/ 40117.0 1000000.0)) onnx__MatMul_0_7)))))
  (+ (- (/ 837091.0 500000.0))
     (* (- (/ 465517.0 1000000.0)) a!1)
     (* (/ 479091.0 200000.0) a!2)
     (* (/ 487521.0 1000000.0) a!3)
     (* (/ 112721.0 500000.0) a!4)))
)
; --- Define inputs ----
(declare-fun x0 () Real)
(declare-fun x1 () Real)
(declare-fun x2 () Real)
(declare-fun x3 () Real)
(declare-fun x4 () Real)
(declare-fun x5 () Real)
(declare-fun x6 () Real)
(declare-fun x7 () Real)
; --- Declare inputs assignment
(assert (= x0 (- 0.021025)))
(assert (= x1 (- 1.043187)))
(assert (= x2 0.300265))
(assert (= x3 0.570702))
(assert (= x4 (- 1.124416)))
(assert (= x5 (- 1.794718)))
(assert (= x6 0.569139))
(assert (= x7 (- 0.361468)))
; --- Define output vars
(declare-fun o0 () Real)
(declare-fun o1 () Real)
; --- Setoutput def
(assert (= o0 (OutputNeuron_0_idx0 x0 x1 x2 x3 x4 x5 x6 x7)))
(assert (= o1 (OutputNeuron_0_idx1 x0 x1 x2 x3 x4 x5 x6 x7)))
; --- SAT call for model
(check-sat)
(get-model)


